db/data/21579527328292112951227973982093820969.z3.out
sat
-------------------
91.606074155
